\ Equation counts
\     Total        E        G        L        N        X        C        B
\	160	160	0	0
\
\ Variable counts
\                  x        b        i      s1s      s2s       sc       si
\     Total     cont   binary  integer     sos1     sos2    scont     sint
\	30	30

\ Nonzero counts
\     Total    const       NL      DLL
\
\
Minimize
 obj: [ - 22.0 x_1 * x_1 + 22.5 x_1 * x_2 - 12.0 x_1 * x_3 - 13.5 x_1 * x_4 + 22.0 x_1 * x_5 - 17.0 x_1 * x_7 - 22.5 x_1 * x_8 + 2.0 x_1 * x_9 + 3.0 x_1 * x_10 + 7.0 x_1 * x_11 - 24.0 x_1 * x_12 + 4.0 x_1 * x_14 - 14.5 x_1 * x_15 - 24.5 x_1 * x_16 + 22.0 x_1 * x_17 + 12.5 x_1 * x_18 + 0.5 x_1 * x_19 + 14.5 x_1 * x_23 + 22.5 x_1 * x_24 - 21.0 x_1 * x_25 - 4.5 x_1 * x_26 + 10.0 x_1 * x_27 - 11.0 x_1 * x_28 + 13.5 x_1 * x_29 + 22.5 x_2 * x_1 - 5.0 x_2 * x_2 - 18.0 x_2 * x_3 + 16.0 x_2 * x_4 - 24.0 x_2 * x_5 + 15.0 x_2 * x_6 + 3.5 x_2 * x_7 - 15.0 x_2 * x_10 + 10.5 x_2 * x_11 - 2.5 x_2 * x_12 - 18.5 x_2 * x_14 - 14.5 x_2 * x_16 - 11.0 x_2 * x_17 - 11.0 x_2 * x_19 + 3.5 x_2 * x_20 + 12.0 x_2 * x_23 - 10.0 x_2 * x_25 - 20.0 x_2 * x_27 - 8.0 x_2 * x_28 - 13.5 x_2 * x_30 - 12.0 x_3 * x_1 - 18.0 x_3 * x_2 - 20.0 x_3 * x_3 + 15.5 x_3 * x_4 + 8.0 x_3 * x_5 + 16.5 x_3 * x_7 + 2.5 x_3 * x_9 - 8.5 x_3 * x_10 - 18.0 x_3 * x_11 + 0.5 x_3 * x_12 - 10.5 x_3 * x_13 + 5.0 x_3 * x_14 - 2.0 x_3 * x_16 + 19.5 x_3 * x_19 - 8.5 x_3 * x_20 + 3.0 x_3 * x_21 - 8.5 x_3 * x_22 + 11.5 x_3 * x_24 + 6.0 x_3 * x_25 + 18.5 x_3 * x_26 - 18.0 x_3 * x_28 + 18.5 x_3 * x_30 - 13.5 x_4 * x_1 + 16.0 x_4 * x_2 + 15.5 x_4 * x_3 + 15.0 x_4 * x_4 + 9.0 x_4 * x_5 + 8.0 x_4 * x_7 - 17.5 x_4 * x_8 - 20.5 x_4 * x_9 + 8.0 x_4 * x_10 - 24.0 x_4 * x_11 - 3.0 x_4 * x_12 - 18.5 x_4 * x_13 - 6.0 x_4 * x_14 - 5.5 x_4 * x_15 + 22.5 x_4 * x_18 + 20.5 x_4 * x_19 - 5.0 x_4 * x_20 + 9.5 x_4 * x_22 - 14.5 x_4 * x_23 + 21.5 x_4 * x_25 - 15.0 x_4 * x_26 + 18.5 x_4 * x_27 - 6.5 x_4 * x_29 + 2.0 x_4 * x_30 + 22.0 x_5 * x_1 - 24.0 x_5 * x_2 + 8.0 x_5 * x_3 + 9.0 x_5 * x_4 + 8.0 x_5 * x_6 - 3.0 x_5 * x_7 - 19.5 x_5 * x_9 - 15.0 x_5 * x_13 - 8.0 x_5 * x_14 + 3.5 x_5 * x_15 - 10.5 x_5 * x_16 + 11.5 x_5 * x_17 - 6.0 x_5 * x_19 + 16.0 x_5 * x_20 + 9.5 x_5 * x_22 - 21.5 x_5 * x_24 + 5.5 x_5 * x_25 + 24.5 x_5 * x_26 - 18.5 x_5 * x_27 - 24.0 x_5 * x_29 - 8.5 x_5 * x_30 + 15.0 x_6 * x_2 + 8.0 x_6 * x_5 - 14.5 x_6 * x_6 + 2.0 x_6 * x_7 - 4.0 x_6 * x_8 - 17.0 x_6 * x_10 - 2.5 x_6 * x_13 - 20.5 x_6 * x_14 + 23.5 x_6 * x_15 - 1.5 x_6 * x_16 - 0.5 x_6 * x_18 - 23.5 x_6 * x_20 - 6.5 x_6 * x_21 + 11.5 x_6 * x_22 - 15.5 x_6 * x_24 - 5.5 x_6 * x_25 - 14.5 x_6 * x_26 - 19.5 x_6 * x_27 + 11.5 x_6 * x_28 - 13.5 x_6 * x_30 - 17.0 x_7 * x_1 + 3.5 x_7 * x_2 + 16.5 x_7 * x_3 + 8.0 x_7 * x_4 - 3.0 x_7 * x_5 + 2.0 x_7 * x_6 - 2.5 x_7 * x_8 - 4.0 x_7 * x_9 - 18.5 x_7 * x_10 - 4.5 x_7 * x_12 + 4.5 x_7 * x_15 - 8.5 x_7 * x_16 - 9.5 x_7 * x_18 - 21.5 x_7 * x_19 - 16.5 x_7 * x_20 + 11.0 x_7 * x_21 - 6.0 x_7 * x_22 - 3.0 x_7 * x_23 - 9.0 x_7 * x_24 - 24.0 x_7 * x_26 - 13.0 x_7 * x_27 + 19.5 x_7 * x_28 - 12.0 x_7 * x_29 - 23.0 x_7 * x_30 - 22.5 x_8 * x_1 - 17.5 x_8 * x_4 - 4.0 x_8 * x_6 - 2.5 x_8 * x_7 - 9.5 x_8 * x_9 - 14.5 x_8 * x_10 - 4.5 x_8 * x_11 + 1.0 x_8 * x_13 - 1.0 x_8 * x_14 - 11.0 x_8 * x_15 - 24.5 x_8 * x_16 - 7.0 x_8 * x_17 - 3.0 x_8 * x_19 - 14.5 x_8 * x_20 + 1.0 x_8 * x_21 - 6.5 x_8 * x_24 - 9.0 x_8 * x_25 + 9.5 x_8 * x_26 - 19.0 x_8 * x_29 + 2.0 x_9 * x_1 + 2.5 x_9 * x_3 - 20.5 x_9 * x_4 - 19.5 x_9 * x_5 - 4.0 x_9 * x_7 - 9.5 x_9 * x_8 + 22.5 x_9 * x_9 - 24.5 x_9 * x_10 + 20.5 x_9 * x_11 - 8.5 x_9 * x_12 + 16.5 x_9 * x_13 - 1.0 x_9 * x_14 + 10.0 x_9 * x_15 + 12.5 x_9 * x_16 + 15.0 x_9 * x_17 + 12.5 x_9 * x_19 + 4.0 x_9 * x_20 + 20.0 x_9 * x_21 + 6.0 x_9 * x_22 + 9.0 x_9 * x_23 + 24.0 x_9 * x_25 - 17.5 x_9 * x_26 + 4.0 x_9 * x_28 + 0.5 x_9 * x_29 - 10.0 x_9 * x_30 + 3.0 x_10 * x_1 - 15.0 x_10 * x_2 - 8.5 x_10 * x_3 + 8.0 x_10 * x_4 - 17.0 x_10 * x_6 - 18.5 x_10 * x_7 - 14.5 x_10 * x_8 - 24.5 x_10 * x_9 - 21.5 x_10 * x_10 - 9.0 x_10 * x_11 + 9.5 x_10 * x_14 + 3.0 x_10 * x_15 + 20.5 x_10 * x_16 - 12.5 x_10 * x_17 - 1.0 x_10 * x_20 + 11.5 x_10 * x_21 - 22.0 x_10 * x_22 + 22.0 x_10 * x_23 + 5.5 x_10 * x_24 - 10.0 x_10 * x_25 - 24.0 x_10 * x_27 - 13.5 x_10 * x_28 + 7.0 x_11 * x_1 + 10.5 x_11 * x_2 - 18.0 x_11 * x_3 - 24.0 x_11 * x_4 - 4.5 x_11 * x_8 + 20.5 x_11 * x_9 - 9.0 x_11 * x_10 + 4.0 x_11 * x_11 + 13.0 x_11 * x_12 - 8.0 x_11 * x_13 + 21.0 x_11 * x_15 + 21.5 x_11 * x_16 + 8.0 x_11 * x_18 - 18.0 x_11 * x_21 - 5.0 x_11 * x_22 + 15.5 x_11 * x_23 - 5.5 x_11 * x_24 - 15.0 x_11 * x_25 + 23.0 x_11 * x_26 + 17.5 x_11 * x_29 - 20.0 x_11 * x_30 - 24.0 x_12 * x_1 - 2.5 x_12 * x_2 + 0.5 x_12 * x_3 - 3.0 x_12 * x_4 - 4.5 x_12 * x_7 - 8.5 x_12 * x_9 + 13.0 x_12 * x_11 - 17.0 x_12 * x_12 - 13.5 x_12 * x_14 - 20.0 x_12 * x_15 + 4.0 x_12 * x_16 - 15.5 x_12 * x_17 - 15.5 x_12 * x_18 - 6.5 x_12 * x_20 - 14.5 x_12 * x_21 + 7.0 x_12 * x_22 - 16.5 x_12 * x_23 + 21.0 x_12 * x_24 - 23.0 x_12 * x_28 + 8.5 x_12 * x_29 - 13.5 x_12 * x_30 - 10.5 x_13 * x_3 - 18.5 x_13 * x_4 - 15.0 x_13 * x_5 - 2.5 x_13 * x_6 + 1.0 x_13 * x_8 + 16.5 x_13 * x_9 - 8.0 x_13 * x_11 + 15.5 x_13 * x_13 - 0.5 x_13 * x_15 - 8.5 x_13 * x_16 - 22.0 x_13 * x_17 - 15.0 x_13 * x_18 + 9.0 x_13 * x_19 - 17.0 x_13 * x_20 + 9.5 x_13 * x_21 + 5.5 x_13 * x_22 - 23.0 x_13 * x_23 - 23.0 x_13 * x_24 - 14.5 x_13 * x_26 - 14.0 x_13 * x_27 + 4.0 x_13 * x_28 + 22.0 x_13 * x_30 + 4.0 x_14 * x_1 - 18.5 x_14 * x_2 + 5.0 x_14 * x_3 - 6.0 x_14 * x_4 - 8.0 x_14 * x_5 - 20.5 x_14 * x_6 - 1.0 x_14 * x_8 - 1.0 x_14 * x_9 + 9.5 x_14 * x_10 - 13.5 x_14 * x_12 - 0.5 x_14 * x_14 + 24.5 x_14 * x_15 - 6.5 x_14 * x_18 + 8.5 x_14 * x_19 - 7.0 x_14 * x_20 - 9.0 x_14 * x_23 + 20.5 x_14 * x_24 - 7.0 x_14 * x_25 - 1.5 x_14 * x_29 + 18.0 x_14 * x_30 - 14.5 x_15 * x_1 - 5.5 x_15 * x_4 + 3.5 x_15 * x_5 + 23.5 x_15 * x_6 + 4.5 x_15 * x_7 - 11.0 x_15 * x_8 + 10.0 x_15 * x_9 + 3.0 x_15 * x_10 + 21.0 x_15 * x_11 - 20.0 x_15 * x_12 - 0.5 x_15 * x_13 + 24.5 x_15 * x_14 - 17.0 x_15 * x_16 + 21.5 x_15 * x_17 + 5.5 x_15 * x_18 + 15.0 x_15 * x_19 - 22.0 x_15 * x_20 + 22.0 x_15 * x_21 + 24.0 x_15 * x_23 - 4.0 x_15 * x_24 - 1.0 x_15 * x_26 - 3.5 x_15 * x_27 + 4.0 x_15 * x_28 - 19.5 x_15 * x_29 + 21.0 x_15 * x_30 - 24.5 x_16 * x_1 - 14.5 x_16 * x_2 - 2.0 x_16 * x_3 - 10.5 x_16 * x_5 - 1.5 x_16 * x_6 - 8.5 x_16 * x_7 - 24.5 x_16 * x_8 + 12.5 x_16 * x_9 + 20.5 x_16 * x_10 + 21.5 x_16 * x_11 + 4.0 x_16 * x_12 - 8.5 x_16 * x_13 - 17.0 x_16 * x_15 + 1.5 x_16 * x_18 - 24.5 x_16 * x_23 + 2.5 x_16 * x_24 - 0.5 x_16 * x_25 - 1.5 x_16 * x_27 - 5.0 x_16 * x_28 + 22.0 x_17 * x_1 - 11.0 x_17 * x_2 + 11.5 x_17 * x_5 - 7.0 x_17 * x_8 + 15.0 x_17 * x_9 - 12.5 x_17 * x_10 - 15.5 x_17 * x_12 - 22.0 x_17 * x_13 + 21.5 x_17 * x_15 + 22.5 x_17 * x_17 - 19.0 x_17 * x_18 - 22.0 x_17 * x_19 + 16.5 x_17 * x_20 + 10.5 x_17 * x_21 - 5.5 x_17 * x_22 - 9.5 x_17 * x_23 + 15.0 x_17 * x_25 + 22.0 x_17 * x_27 - 24.0 x_17 * x_28 - 4.5 x_17 * x_29 - 6.5 x_17 * x_30 + 12.5 x_18 * x_1 + 22.5 x_18 * x_4 - 0.5 x_18 * x_6 - 9.5 x_18 * x_7 + 8.0 x_18 * x_11 - 15.5 x_18 * x_12 - 15.0 x_18 * x_13 - 6.5 x_18 * x_14 + 5.5 x_18 * x_15 + 1.5 x_18 * x_16 - 19.0 x_18 * x_17 + 14.0 x_18 * x_18 + 21.5 x_18 * x_19 - 9.5 x_18 * x_21 + 19.5 x_18 * x_22 + 19.0 x_18 * x_23 + 24.5 x_18 * x_24 - 5.0 x_18 * x_25 - 20.0 x_18 * x_27 - 11.5 x_18 * x_28 + 16.0 x_18 * x_29 - 4.5 x_18 * x_30 + 0.5 x_19 * x_1 - 11.0 x_19 * x_2 + 19.5 x_19 * x_3 + 20.5 x_19 * x_4 - 6.0 x_19 * x_5 - 21.5 x_19 * x_7 - 3.0 x_19 * x_8 + 12.5 x_19 * x_9 + 9.0 x_19 * x_13 + 8.5 x_19 * x_14 + 15.0 x_19 * x_15 - 22.0 x_19 * x_17 + 21.5 x_19 * x_18 + 23.5 x_19 * x_19 - 6.0 x_19 * x_20 - 20.0 x_19 * x_22 + 9.5 x_19 * x_23 + 13.0 x_19 * x_24 + 2.5 x_19 * x_26 - 5.0 x_19 * x_29 + 3.5 x_20 * x_2 - 8.5 x_20 * x_3 - 5.0 x_20 * x_4 + 16.0 x_20 * x_5 - 23.5 x_20 * x_6 - 16.5 x_20 * x_7 - 14.5 x_20 * x_8 + 4.0 x_20 * x_9 - 1.0 x_20 * x_10 - 6.5 x_20 * x_12 - 17.0 x_20 * x_13 - 7.0 x_20 * x_14 - 22.0 x_20 * x_15 + 16.5 x_20 * x_17 - 6.0 x_20 * x_19 + 13.0 x_20 * x_20 + 14.5 x_20 * x_24 + 23.5 x_20 * x_25 + 9.0 x_20 * x_26 - 1.0 x_20 * x_27 - 20.5 x_20 * x_28 - 1.5 x_20 * x_29 + 16.0 x_20 * x_30 + 3.0 x_21 * x_3 - 6.5 x_21 * x_6 + 11.0 x_21 * x_7 + 1.0 x_21 * x_8 + 20.0 x_21 * x_9 + 11.5 x_21 * x_10 - 18.0 x_21 * x_11 - 14.5 x_21 * x_12 + 9.5 x_21 * x_13 + 22.0 x_21 * x_15 + 10.5 x_21 * x_17 - 9.5 x_21 * x_18 + 16.5 x_21 * x_21 + 22.5 x_21 * x_22 + 6.0 x_21 * x_24 + 18.5 x_21 * x_25 + 24.0 x_21 * x_28 - 22.0 x_21 * x_29 - 7.5 x_21 * x_30 - 8.5 x_22 * x_3 + 9.5 x_22 * x_4 + 9.5 x_22 * x_5 + 11.5 x_22 * x_6 - 6.0 x_22 * x_7 + 6.0 x_22 * x_9 - 22.0 x_22 * x_10 - 5.0 x_22 * x_11 + 7.0 x_22 * x_12 + 5.5 x_22 * x_13 - 5.5 x_22 * x_17 + 19.5 x_22 * x_18 - 20.0 x_22 * x_19 + 22.5 x_22 * x_21 + 21.5 x_22 * x_22 - 20.0 x_22 * x_23 - 1.0 x_22 * x_24 + 16.5 x_22 * x_25 + 16.0 x_22 * x_26 + 12.0 x_22 * x_28 - 19.5 x_22 * x_30 + 14.5 x_23 * x_1 + 12.0 x_23 * x_2 - 14.5 x_23 * x_4 - 3.0 x_23 * x_7 + 9.0 x_23 * x_9 + 22.0 x_23 * x_10 + 15.5 x_23 * x_11 - 16.5 x_23 * x_12 - 23.0 x_23 * x_13 - 9.0 x_23 * x_14 + 24.0 x_23 * x_15 - 24.5 x_23 * x_16 - 9.5 x_23 * x_17 + 19.0 x_23 * x_18 + 9.5 x_23 * x_19 - 20.0 x_23 * x_22 + 10.0 x_23 * x_23 - 1.5 x_23 * x_26 - 24.0 x_23 * x_27 + 9.5 x_23 * x_29 + 22.5 x_24 * x_1 + 11.5 x_24 * x_3 - 21.5 x_24 * x_5 - 15.5 x_24 * x_6 - 9.0 x_24 * x_7 - 6.5 x_24 * x_8 + 5.5 x_24 * x_10 - 5.5 x_24 * x_11 + 21.0 x_24 * x_12 - 23.0 x_24 * x_13 + 20.5 x_24 * x_14 - 4.0 x_24 * x_15 + 2.5 x_24 * x_16 + 24.5 x_24 * x_18 + 13.0 x_24 * x_19 + 14.5 x_24 * x_20 + 6.0 x_24 * x_21 - 1.0 x_24 * x_22 + 13.0 x_24 * x_24 - 5.5 x_24 * x_25 + 18.5 x_24 * x_26 + 14.0 x_24 * x_27 + 13.0 x_24 * x_28 + 21.5 x_24 * x_30 - 21.0 x_25 * x_1 - 10.0 x_25 * x_2 + 6.0 x_25 * x_3 + 21.5 x_25 * x_4 + 5.5 x_25 * x_5 - 5.5 x_25 * x_6 - 9.0 x_25 * x_8 + 24.0 x_25 * x_9 - 10.0 x_25 * x_10 - 15.0 x_25 * x_11 - 7.0 x_25 * x_14 - 0.5 x_25 * x_16 + 15.0 x_25 * x_17 - 5.0 x_25 * x_18 + 23.5 x_25 * x_20 + 18.5 x_25 * x_21 + 16.5 x_25 * x_22 - 5.5 x_25 * x_24 - 24.5 x_25 * x_26 + 11.0 x_25 * x_27 - 22.0 x_25 * x_28 - 12.5 x_25 * x_29 - 4.5 x_26 * x_1 + 18.5 x_26 * x_3 - 15.0 x_26 * x_4 + 24.5 x_26 * x_5 - 14.5 x_26 * x_6 - 24.0 x_26 * x_7 + 9.5 x_26 * x_8 - 17.5 x_26 * x_9 + 23.0 x_26 * x_11 - 14.5 x_26 * x_13 - 1.0 x_26 * x_15 + 2.5 x_26 * x_19 + 9.0 x_26 * x_20 + 16.0 x_26 * x_22 - 1.5 x_26 * x_23 + 18.5 x_26 * x_24 - 24.5 x_26 * x_25 - 17.5 x_26 * x_27 - 20.0 x_26 * x_28 - 18.0 x_26 * x_29 - 3.5 x_26 * x_30 + 10.0 x_27 * x_1 - 20.0 x_27 * x_2 + 18.5 x_27 * x_4 - 18.5 x_27 * x_5 - 19.5 x_27 * x_6 - 13.0 x_27 * x_7 - 24.0 x_27 * x_10 - 14.0 x_27 * x_13 - 3.5 x_27 * x_15 - 1.5 x_27 * x_16 + 22.0 x_27 * x_17 - 20.0 x_27 * x_18 - 1.0 x_27 * x_20 - 24.0 x_27 * x_23 + 14.0 x_27 * x_24 + 11.0 x_27 * x_25 - 17.5 x_27 * x_26 - 8.5 x_27 * x_27 - 5.0 x_27 * x_28 + 2.5 x_27 * x_29 + 5.5 x_27 * x_30 - 11.0 x_28 * x_1 - 8.0 x_28 * x_2 - 18.0 x_28 * x_3 + 11.5 x_28 * x_6 + 19.5 x_28 * x_7 + 4.0 x_28 * x_9 - 13.5 x_28 * x_10 - 23.0 x_28 * x_12 + 4.0 x_28 * x_13 + 4.0 x_28 * x_15 - 5.0 x_28 * x_16 - 24.0 x_28 * x_17 - 11.5 x_28 * x_18 - 20.5 x_28 * x_20 + 24.0 x_28 * x_21 + 12.0 x_28 * x_22 + 13.0 x_28 * x_24 - 22.0 x_28 * x_25 - 20.0 x_28 * x_26 - 5.0 x_28 * x_27 + 15.5 x_28 * x_28 - 7.5 x_28 * x_30 + 13.5 x_29 * x_1 - 6.5 x_29 * x_4 - 24.0 x_29 * x_5 - 12.0 x_29 * x_7 - 19.0 x_29 * x_8 + 0.5 x_29 * x_9 + 17.5 x_29 * x_11 + 8.5 x_29 * x_12 - 1.5 x_29 * x_14 - 19.5 x_29 * x_15 - 4.5 x_29 * x_17 + 16.0 x_29 * x_18 - 5.0 x_29 * x_19 - 1.5 x_29 * x_20 - 22.0 x_29 * x_21 + 9.5 x_29 * x_23 - 12.5 x_29 * x_25 - 18.0 x_29 * x_26 + 2.5 x_29 * x_27 - 13.5 x_30 * x_2 + 18.5 x_30 * x_3 + 2.0 x_30 * x_4 - 8.5 x_30 * x_5 - 13.5 x_30 * x_6 - 23.0 x_30 * x_7 - 10.0 x_30 * x_9 - 20.0 x_30 * x_11 - 13.5 x_30 * x_12 + 22.0 x_30 * x_13 + 18.0 x_30 * x_14 + 21.0 x_30 * x_15 - 6.5 x_30 * x_17 - 4.5 x_30 * x_18 + 16.0 x_30 * x_20 - 7.5 x_30 * x_21 - 19.5 x_30 * x_22 + 21.5 x_30 * x_24 - 3.5 x_30 * x_26 + 5.5 x_30 * x_27 - 7.5 x_30 * x_28 - 20.5 x_30 * x_30 ] + 15.0 x_1 - 46.0 x_2 + 42.0 x_3 + 0.0 x_4 - 33.0 x_5 + 30.0 x_6 - 19.0 x_7 + 20.0 x_8 - 26.0 x_9 - 27.0 x_10 - 7.0 x_11 - 4.0 x_12 + 0.0 x_13 + 13.0 x_14 - 43.0 x_15 + 0.0 x_16 + 0.0 x_17 + 0.0 x_18 + 0.0 x_19 + 31.0 x_20 - 49.0 x_21 + 9.0 x_22 + 6.0 x_23 + 0.0 x_24 + 34.0 x_25 - 42.0 x_26 + 0.0 x_27 - 32.0 x_28 + 17.0 x_29 - 12.0 x_30

Subject To
 e2: [  x_1 * x_2 ] = 0.0
 e3: [  x_1 * x_4 ] = 0.0
 e4: [  x_1 * x_5 ] = 0.0
 e5: [  x_1 * x_7 ] = 0.0
 e6: [  x_1 * x_14 ] = 0.0
 e7: [  x_1 * x_15 ] = 0.0
 e8: [  x_1 * x_24 ] = 0.0
 e9: [  x_2 * x_4 ] = 0.0
 e10: [  x_2 * x_6 ] = 0.0
 e11: [  x_2 * x_10 ] = 0.0
 e12: [  x_2 * x_27 ] = 0.0
 e13: [  x_2 * x_28 ] = 0.0
 e14: [  x_3 * x_22 ] = 0.0
 e15: [  x_3 * x_28 ] = 0.0
 e16: [  x_3 * x_30 ] = 0.0
 e17: [  x_4 * x_1 ] = 0.0
 e18: [  x_4 * x_8 ] = 0.0
 e19: [  x_4 * x_9 ] = 0.0
 e20: [  x_4 * x_12 ] = 0.0
 e21: [  x_4 * x_13 ] = 0.0
 e22: [  x_4 * x_26 ] = 0.0
 e23: [  x_4 * x_29 ] = 0.0
 e24: [  x_5 * x_7 ] = 0.0
 e25: [  x_5 * x_25 ] = 0.0
 e26: [  x_5 * x_29 ] = 0.0
 e27: [  x_6 * x_6 ] = 0.0
 e28: [  x_6 * x_8 ] = 0.0
 e29: [  x_6 * x_10 ] = 0.0
 e30: [  x_6 * x_13 ] = 0.0
 e31: [  x_6 * x_15 ] = 0.0
 e32: [  x_6 * x_16 ] = 0.0
 e33: [  x_6 * x_22 ] = 0.0
 e34: [  x_6 * x_24 ] = 0.0
 e35: [  x_6 * x_25 ] = 0.0
 e36: [  x_7 * x_16 ] = 0.0
 e37: [  x_7 * x_18 ] = 0.0
 e38: [  x_7 * x_21 ] = 0.0
 e39: [  x_8 * x_16 ] = 0.0
 e40: [  x_8 * x_20 ] = 0.0
 e41: [  x_8 * x_25 ] = 0.0
 e42: [  x_8 * x_26 ] = 0.0
 e43: [  x_9 * x_17 ] = 0.0
 e44: [  x_10 * x_2 ] = 0.0
 e45: [  x_10 * x_20 ] = 0.0
 e46: [  x_10 * x_23 ] = 0.0
 e47: [  x_10 * x_25 ] = 0.0
 e48: [  x_11 * x_2 ] = 0.0
 e49: [  x_11 * x_3 ] = 0.0
 e50: [  x_11 * x_9 ] = 0.0
 e51: [  x_11 * x_10 ] = 0.0
 e52: [  x_11 * x_11 ] = 0.0
 e53: [  x_11 * x_21 ] = 0.0
 e54: [  x_11 * x_22 ] = 0.0
 e55: [  x_12 * x_12 ] = 0.0
 e56: [  x_12 * x_21 ] = 0.0
 e57: [  x_12 * x_22 ] = 0.0
 e58: [  x_12 * x_28 ] = 0.0
 e59: [  x_13 * x_17 ] = 0.0
 e60: [  x_13 * x_18 ] = 0.0
 e61: [  x_13 * x_21 ] = 0.0
 e62: [  x_13 * x_27 ] = 0.0
 e63: [  x_13 * x_28 ] = 0.0
 e64: [  x_14 * x_9 ] = 0.0
 e65: [  x_14 * x_18 ] = 0.0
 e66: [  x_14 * x_19 ] = 0.0
 e67: [  x_14 * x_24 ] = 0.0
 e68: [  x_14 * x_29 ] = 0.0
 e69: [  x_14 * x_30 ] = 0.0
 e70: [  x_15 * x_10 ] = 0.0
 e71: [  x_15 * x_17 ] = 0.0
 e72: [  x_15 * x_21 ] = 0.0
 e73: [  x_15 * x_28 ] = 0.0
 e74: [  x_16 * x_1 ] = 0.0
 e75: [  x_16 * x_7 ] = 0.0
 e76: [  x_16 * x_8 ] = 0.0
 e77: [  x_16 * x_11 ] = 0.0
 e78: [  x_16 * x_28 ] = 0.0
 e79: [  x_17 * x_2 ] = 0.0
 e80: [  x_17 * x_9 ] = 0.0
 e81: [  x_17 * x_20 ] = 0.0
 e82: [  x_17 * x_21 ] = 0.0
 e83: [  x_17 * x_25 ] = 0.0
 e84: [  x_17 * x_29 ] = 0.0
 e85: [  x_18 * x_12 ] = 0.0
 e86: [  x_18 * x_15 ] = 0.0
 e87: [  x_18 * x_17 ] = 0.0
 e88: [  x_18 * x_18 ] = 0.0
 e89: [  x_18 * x_25 ] = 0.0
 e90: [  x_18 * x_30 ] = 0.0
 e91: [  x_19 * x_4 ] = 0.0
 e92: [  x_19 * x_7 ] = 0.0
 e93: [  x_19 * x_8 ] = 0.0
 e94: [  x_19 * x_13 ] = 0.0
 e95: [  x_19 * x_14 ] = 0.0
 e96: [  x_19 * x_17 ] = 0.0
 e97: [  x_19 * x_19 ] = 0.0
 e98: [  x_19 * x_23 ] = 0.0
 e99: [  x_19 * x_24 ] = 0.0
 e100: [  x_19 * x_29 ] = 0.0
 e101: [  x_20 * x_4 ] = 0.0
 e102: [  x_20 * x_7 ] = 0.0
 e103: [  x_20 * x_9 ] = 0.0
 e104: [  x_20 * x_12 ] = 0.0
 e105: [  x_20 * x_13 ] = 0.0
 e106: [  x_21 * x_11 ] = 0.0
 e107: [  x_21 * x_13 ] = 0.0
 e108: [  x_21 * x_15 ] = 0.0
 e109: [  x_21 * x_21 ] = 0.0
 e110: [  x_22 * x_4 ] = 0.0
 e111: [  x_22 * x_5 ] = 0.0
 e112: [  x_22 * x_7 ] = 0.0
 e113: [  x_22 * x_21 ] = 0.0
 e114: [  x_22 * x_24 ] = 0.0
 e115: [  x_22 * x_28 ] = 0.0
 e116: [  x_23 * x_4 ] = 0.0
 e117: [  x_23 * x_14 ] = 0.0
 e118: [  x_23 * x_17 ] = 0.0
 e119: [  x_23 * x_18 ] = 0.0
 e120: [  x_23 * x_19 ] = 0.0
 e121: [  x_23 * x_26 ] = 0.0
 e122: [  x_24 * x_3 ] = 0.0
 e123: [  x_24 * x_8 ] = 0.0
 e124: [  x_24 * x_11 ] = 0.0
 e125: [  x_24 * x_12 ] = 0.0
 e126: [  x_24 * x_15 ] = 0.0
 e127: [  x_24 * x_20 ] = 0.0
 e128: [  x_24 * x_22 ] = 0.0
 e129: [  x_24 * x_25 ] = 0.0
 e130: [  x_25 * x_1 ] = 0.0
 e131: [  x_25 * x_4 ] = 0.0
 e132: [  x_25 * x_5 ] = 0.0
 e133: [  x_25 * x_9 ] = 0.0
 e134: [  x_25 * x_11 ] = 0.0
 e135: [  x_25 * x_24 ] = 0.0
 e136: [  x_26 * x_1 ] = 0.0
 e137: [  x_26 * x_8 ] = 0.0
 e138: [  x_26 * x_23 ] = 0.0
 e139: [  x_26 * x_27 ] = 0.0
 e140: [  x_27 * x_2 ] = 0.0
 e141: [  x_27 * x_4 ] = 0.0
 e142: [  x_27 * x_23 ] = 0.0
 e143: [  x_27 * x_24 ] = 0.0
 e144: [  x_27 * x_28 ] = 0.0
 e145: [  x_27 * x_30 ] = 0.0
 e146: [  x_28 * x_1 ] = 0.0
 e147: [  x_28 * x_2 ] = 0.0
 e148: [  x_28 * x_3 ] = 0.0
 e149: [  x_28 * x_6 ] = 0.0
 e150: [  x_28 * x_9 ] = 0.0
 e151: [  x_28 * x_15 ] = 0.0
 e152: [  x_28 * x_16 ] = 0.0
 e153: [  x_28 * x_24 ] = 0.0
 e154: [  x_28 * x_27 ] = 0.0
 e155: [  x_28 * x_30 ] = 0.0
 e156: [  x_29 * x_9 ] = 0.0
 e157: [  x_29 * x_14 ] = 0.0
 e158: [  x_29 * x_17 ] = 0.0
 e159: [  x_29 * x_21 ] = 0.0
 e160: [  x_30 * x_9 ] = 0.0
 e161: [  x_30 * x_27 ] = 0.0

Bounds
 x_1 <= 1.0
 x_2 <= 1.0
 x_3 <= 1.0
 x_4 <= 1.0
 x_5 <= 1.0
 x_6 <= 1.0
 x_7 <= 1.0
 x_8 <= 1.0
 x_9 <= 1.0
 x_10 <= 1.0
 x_11 <= 1.0
 x_12 <= 1.0
 x_13 <= 1.0
 x_14 <= 1.0
 x_15 <= 1.0
 x_16 <= 1.0
 x_17 <= 1.0
 x_18 <= 1.0
 x_19 <= 1.0
 x_20 <= 1.0
 x_21 <= 1.0
 x_22 <= 1.0
 x_23 <= 1.0
 x_24 <= 1.0
 x_25 <= 1.0
 x_26 <= 1.0
 x_27 <= 1.0
 x_28 <= 1.0
 x_29 <= 1.0
 x_30 <= 1.0

End